p cnf 12 50 
-3 11 -6 0
-5 7 4 0
11 -10 3 0
-10 -6 -1 0
10 -12 -8 0
-5 1 4 0
-6 5 10 0
8 1 -3 0
-12 6 -11 0
-4 -5 -12 0
-3 7 2 0
-11 -12 -3 0
7 12 5 0
11 1 4 0
-1 3 -9 0
-11 -9 2 0
8 -5 -3 0
2 -7 -1 0
-7 3 -5 0
-11 -9 -6 0
12 3 -6 0
-3 1 11 0
1 9 -11 0
4 -3 10 0
12 -4 -2 0
4 7 -8 0
-9 -4 -8 0
-5 -4 7 0
1 3 -9 0
2 4 7 0
6 3 7 0
-11 1 3 0
7 11 4 0
-8 1 2 0
7 12 -9 0
-11 -9 -3 0
5 -11 1 0
5 -9 8 0
-8 -5 3 0
-5 12 -2 0
-3 -11 10 0
-4 8 2 0
-5 1 -8 0
-3 -12 -9 0
2 -1 -4 0
10 -9 6 0
-9 -8 -6 0
-11 -6 12 0
-9 -5 8 0
-4 -11 10 0
